unsat
(define-fun f ((x (_ BitVec 32))) (_ BitVec 32) (bvxor x (bvor x (bvadd #b00000000000000000000000000000001 x))))
0.08user 0.01system 0:00.10elapsed 99%CPU (0avgtext+0avgdata 28780maxresident)k
0inputs+8outputs (0major+1834minor)pagefaults 0swaps
